instance/i2.alb
<number of tasks>
300

<cycle time>
1000

<order strength>
0.994

<task times>
1 860
2 124
3 510
4 543
5 860
6 930
7 302
8 739
9 473
10 830
11 593
12 970
13 622
14 809
15 449
16 898
17 52
18 914
19 412
20 655
21 745
22 185
23 856
24 649
25 622
26 204
27 313
28 803
29 675
30 480
31 910
32 529
33 435
34 318
35 966
36 293
37 927
38 319
39 925
40 807
41 209
42 900
43 170
44 116
45 891
46 500
47 853
48 530
49 543
50 910
51 752
52 322
53 833
54 892
55 308
56 331
57 727
58 843
59 519
60 501
61 432
62 280
63 484
64 620
65 279
66 531
67 225
68 640
69 312
70 154
71 701
72 205
73 600
74 279
75 400
76 340
77 204
78 535
79 296
80 951
81 781
82 903
83 862
84 513
85 192
86 838
87 261
88 513
89 696
90 751
91 416
92 509
93 468
94 530
95 625
96 251
97 226
98 610
99 155
100 450
101 405
102 671
103 114
104 316
105 716
106 946
107 116
108 442
109 827
110 840
111 218
112 950
113 614
114 677
115 841
116 895
117 257
118 774
119 61
120 396
121 387
122 652
123 766
124 687
125 745
126 154
127 540
128 600
129 335
130 666
131 412
132 496
133 867
134 634
135 554
136 821
137 487
138 962
139 666
140 939
141 450
142 844
143 455
144 490
145 740
146 854
147 586
148 589
149 207
150 279
151 864
152 518
153 202
154 527
155 701
156 529
157 365
158 883
159 182
160 987
161 949
162 429
163 599
164 807
165 415
166 956
167 661
168 711
169 610
170 54
171 642
172 241
173 259
174 187
175 384
176 507
177 553
178 899
179 949
180 475
181 886
182 944
183 536
184 592
185 824
186 524
187 709
188 175
189 267
190 401
191 435
192 681
193 919
194 573
195 308
196 322
197 840
198 543
199 236
200 446
201 847
202 572
203 166
204 938
205 493
206 887
207 833
208 981
209 202
210 683
211 369
212 218
213 710
214 728
215 264
216 772
217 509
218 492
219 814
220 732
221 614
222 867
223 233
224 934
225 439
226 963
227 776
228 502
229 692
230 483
231 903
232 554
233 494
234 148
235 248
236 693
237 894
238 93
239 613
240 746
241 406
242 516
243 906
244 141
245 459
246 916
247 235
248 757
249 996
250 49
251 356
252 516
253 876
254 359
255 936
256 497
257 945
258 540
259 670
260 173
261 303
262 173
263 662
264 235
265 406
266 869
267 467
268 327
269 848
270 588
271 353
272 446
273 390
274 220
275 940
276 428
277 947
278 789
279 272
280 401
281 870
282 822
283 452
284 779
285 395
286 776
287 675
288 480
289 672
290 854
291 540
292 182
293 558
294 334
295 831
296 710
297 950
298 602
299 801
300 732

<precedence relations>
1,2
1,3
1,4
2,5
3,5
4,5
5,6
5,7
5,8
6,9
7,9
8,9
9,10
9,11
9,12
10,13
11,13
12,13
13,14
13,15
13,16
14,17
15,17
16,17
17,18
17,19
18,20
19,20
20,21
20,22
20,23
21,24
22,24
23,24
24,25
24,26
24,27
25,28
26,28
27,28
28,29
28,30
28,31
29,32
30,32
31,32
32,33
32,34
32,35
32,36
33,37
34,37
35,37
36,37
37,38
37,39
37,40
37,41
38,42
39,42
40,42
41,42
42,43
42,44
43,45
44,45
45,46
45,47
45,48
45,49
46,50
47,50
48,50
49,50
50,51
50,52
50,53
50,54
51,55
52,55
53,55
54,55
55,56
55,57
56,58
57,58
58,59
58,60
58,61
59,62
60,62
61,62
62,63
62,64
62,65
62,66
63,67
64,67
65,67
66,67
67,68
67,69
68,70
69,70
70,71
70,72
70,73
70,74
71,75
72,75
73,75
74,75
75,76
75,77
76,78
77,78
78,79
78,80
79,81
80,81
81,82
81,83
82,84
83,84
84,85
84,86
85,87
86,87
87,88
87,89
88,90
89,90
90,91
90,92
90,93
90,94
91,95
92,95
93,95
94,95
95,96
95,97
95,98
96,99
97,99
98,99
99,100
99,101
100,102
101,102
102,103
102,104
102,105
103,106
104,106
105,106
106,107
106,108
106,109
106,110
107,111
108,111
109,111
110,111
111,112
111,113
111,114
111,115
112,116
113,116
114,116
115,116
116,117
116,118
116,119
116,120
117,121
118,121
119,121
120,121
121,122
121,123
121,124
122,125
123,125
124,125
125,126
125,127
125,128
126,129
127,129
128,129
129,130
129,131
129,132
129,133
130,134
131,134
132,134
133,134
134,135
134,136
134,137
135,138
136,138
137,138
138,139
138,140
139,141
140,141
141,142
141,143
142,144
143,144
144,145
144,146
144,147
145,148
146,148
147,148
148,149
148,150
148,151
148,152
149,153
150,153
151,153
152,153
153,154
153,155
153,156
153,157
154,158
155,158
156,158
157,158
158,159
158,160
159,161
160,161
161,162
161,163
162,164
163,164
164,165
164,166
164,167
164,168
165,169
166,169
167,169
168,169
169,170
169,171
169,172
170,173
171,173
172,173
173,174
173,175
174,176
175,176
176,177
176,178
176,179
177,180
178,180
179,180
180,181
180,182
180,183
181,184
182,184
183,184
184,185
184,186
184,187
184,188
185,189
186,189
187,189
188,189
189,190
189,191
190,192
191,192
192,193
192,194
192,195
193,196
194,196
195,196
196,197
196,198
196,199
197,200
198,200
199,200
200,201
200,202
200,203
201,204
202,204
203,204
204,205
204,206
204,207
205,208
206,208
207,208
208,209
208,210
209,211
210,211
211,212
211,213
211,214
212,215
213,215
214,215
215,216
215,217
215,218
215,219
216,220
217,220
218,220
219,220
220,221
220,222
220,223
220,224
221,225
222,225
223,225
224,225
225,226
225,227
226,228
227,228
228,229
228,230
228,231
228,232
229,233
230,233
231,233
232,233
233,234
233,235
234,236
235,236
236,237
236,238
237,239
238,239
239,240
239,241
239,242
239,243
240,244
241,244
242,244
243,244
244,245
244,246
244,247
244,248
245,249
246,249
247,249
248,249
249,250
249,251
250,252
251,252
252,253
252,254
252,255
252,256
253,257
254,257
255,257
256,257
257,258
257,259
257,260
257,261
258,262
259,262
260,262
261,262
262,263
262,264
262,265
263,266
264,266
265,266
266,267
266,268
266,269
267,270
268,270
269,270
270,271
270,272
270,273
270,274
271,275
272,275
273,275
274,275
275,276
275,277
275,278
276,279
277,279
278,279
279,280
279,281
279,282
280,283
281,283
282,283
283,284
283,285
283,286
283,287
284,288
285,288
286,288
287,288
288,289
288,290
288,291
289,292
290,292
291,292
292,293
292,294
293,295
294,295
295,296
295,297
295,298
295,299
296,300
297,300
298,300
299,300

<end>
