public/soluce/i2.sol
station_1: 1
station_2: 4
station_3: 3
station_4: 2 5
station_5: 6
station_6: 8
station_7: 7 9
station_8: 12
station_9: 10
station_10: 11
station_11: 13
station_12: 16
station_13: 14
station_14: 15 17 19
station_15: 18
station_16: 20
station_17: 23
station_18: 21 22
station_19: 24 27
station_20: 25 26
station_21: 28
station_22: 31
station_23: 29
station_24: 30
station_25: 32 36
station_26: 35
station_27: 33 34
station_28: 37
station_29: 39
station_30: 40
station_31: 38 41
station_32: 42
station_33: 43 44
station_34: 45
station_35: 47
station_36: 48
station_37: 49
station_38: 46
station_39: 50
station_40: 54
station_41: 53
station_42: 51
station_43: 52 55 56
station_44: 57
station_45: 58
station_46: 59 61
station_47: 60 62
station_48: 64
station_49: 66
station_50: 63 65 67
station_51: 68 69
station_52: 70 72 73
station_53: 71 74
station_54: 75 76 77
station_55: 78 79
station_56: 80
station_57: 81
station_58: 82
station_59: 83
station_60: 84 85
station_61: 86
station_62: 87 89
station_63: 88
station_64: 90
station_65: 92 93
station_66: 91 94
station_67: 95 96
station_68: 97 98 99
station_69: 100 101
station_70: 102 104
station_71: 103 105
station_72: 106
station_73: 110
station_74: 109
station_75: 107 108 111
station_76: 112
station_77: 113
station_78: 114
station_79: 115
station_80: 116 119
station_81: 118
station_82: 120
station_83: 117 121
station_84: 123
station_85: 124
station_86: 122
station_87: 125 126
station_88: 127
station_89: 128 129
station_90: 133
station_91: 130
station_92: 131 132
station_93: 134
station_94: 136
station_95: 137
station_96: 135
station_97: 138
station_98: 140
station_99: 139
station_100: 141 143
station_101: 142
station_102: 144
station_103: 146
station_104: 147
station_105: 145
station_106: 148 150
station_107: 151
station_108: 149 152 153
station_109: 154
station_110: 155
station_111: 156 157
station_112: 158
station_113: 159
station_114: 160
station_115: 161
station_116: 162
station_117: 163
station_118: 164
station_119: 165
station_120: 166
station_121: 167
station_122: 168
station_123: 169
station_124: 170 171
station_125: 172 173 174
station_126: 175 176
station_127: 177
station_128: 178
station_129: 179
station_130: 180
station_131: 181
station_132: 182
station_133: 183
station_134: 184
station_135: 185
station_136: 187
station_137: 186 188 189
station_138: 190 191
station_139: 192
station_140: 193
station_141: 194 195
station_142: 196 198
station_143: 197
station_144: 199 200
station_145: 201
station_146: 202 203
station_147: 204
station_148: 205
station_149: 206
station_150: 207
station_151: 208
station_152: 209 210
station_153: 211
station_154: 212 213
station_155: 214
station_156: 215 217
station_157: 216
station_158: 218
station_159: 219
station_160: 220
station_161: 221
station_162: 222
station_163: 224
station_164: 223 225
station_165: 226
station_166: 227
station_167: 228 230
station_168: 229
station_169: 231
station_170: 232
station_171: 233 234
station_172: 235 236
station_173: 237
station_174: 238 239
station_175: 240
station_176: 241 242
station_177: 243
station_178: 244 245
station_179: 246
station_180: 247 248
station_181: 249
station_182: 250 251 252
station_183: 253
station_184: 255
station_185: 254 256
station_186: 257
station_187: 258 260
station_188: 259 261
station_189: 262 263
station_190: 264 265
station_191: 266
station_192: 267
station_193: 269
station_194: 268 270
station_195: 271 272
station_196: 273 274
station_197: 275
station_198: 277
station_199: 278
station_200: 276 279
station_201: 281
station_202: 282
station_203: 280 283
station_204: 284
station_205: 286
station_206: 287
station_207: 285 288
station_208: 289
station_209: 290
station_210: 291 292
station_211: 293 294
station_212: 295
station_213: 296
station_214: 297
station_215: 298
station_216: 299
station_217: 300
